Name : colegios
TYPE : TSP
DIMENSION: 10
EDGE_WEIGHT_TYPE : EUC_2D
NODE_COORD_SECTION
1	1110.667955	-521.5643998
2	-1675.592107	1531.985162
3	0	0
4	192.4268718	1492.98204
5	236.8099528	565.7894838
6	-799.9752567	-1272.231538
7	-284.2543197	2588.342996
8	779.1585119	497.7326379
9	-1467.202021	531.5602976
10	-1565.352416	996.861829
11	-13.15796381	-283.9810106
12	-640.977628	-1999.260192
13	1380.484137	-50.13337853
14	14.5605894	137.2841635
15	1167.708063	204.8946456
16	443.5714354	-541.8282234
17	-246.149658	-846.1968734
18	-1321.139717	-299.5061459
19	1071.494627	475.7162243
EOF
